NAME: random89
TYPE: TSP
DIMENSION: 89
EDGE_WEIGHT_TYPE: EXPLICIT
EDGE_WEIGHT_FORMAT: FULL_MATRIX
EDGE_WEIGHT_SECTION
0 625 25 625 625 625 625 625 20 625 21 625 31 625 625 16 625 625 625 625 24 625 10 625 43 28 625 625 625 625 25 625 625 625 625 625 625 625 625 625 625 625 625 625 625 625 625 625 625 18 625 625 14 18 625 625 27 36 625 625 625 625 625 5 625 625 625 625 625 625 625 625 625 625 625 625 27 5 9 625 625 625 625 625 15 24 625 625 625
625 0 32 625 625 625 625 35 625 625 33 625 625 625 625 15 8 9 625 625 32 625 625 625 625 4 625 625 26 625 625 625 625 625 15 625 625 625 625 625 625 625 625 7 625 625 625 625 22 625 625 625 17 625 24 625 22 625 625 625 625 625 625 625 625 625 625 625 625 625 625 625 625 625 625 625 625 24 24 625 19 25 625 625 625 625 625 625 625
25 32 0 625 625 625 625 625 16 29 5 625 30 625 625 29 40 38 625 625 625 41 30 625 625 28 625 625 625 40 9 625 625 625 42 625 625 625 625 625 625 625 625 38 625 625 625 625 625 29 625 625 29 625 625 625 44 625 625 625 625 625 625 625 625 625 625 41 625 47 625 625 625 625 625 625 625 24 16 625 625 625 625 625 18 625 625 625 625
625 625 625 0 8 625 625 9 625 625 625 625 625 20 625 625 625 625 11 625 18 625 625 29 625 625 11 625 24 625 625 625 625 625 25 625 625 13 23 625 625 625 625 625 625 625 625 625 625 625 625 625 33 625 19 625 18 625 625 6 625 35 625 625 625 36 18 625 625 625 625 625 625 625 625 625 20 625 625 625 625 625 15 41 625 625 20 10 625
625 625 625 8 0 625 30 1 625 625 625 625 625 625 625 625 625 625 19 625 22 625 625 625 625 625 19 625 16 625 625 625 625 625 21 625 625 17 14 625 625 625 625 625 625 625 625 625 625 625 625 625 625 625 12 625 17 625 625 10 625 44 625 625 625 625 21 625 625 625 625 625 625 625 23 625 625 625 625 625 20 37 22 47 625 625 26 18 625
625 625 625 625 625 0 625 625 33 24 625 625 19 625 17 625 625 625 625 625 625 18 625 625 26 625 625 625 625 26 625 625 625 625 625 625 625 625 625 13 625 625 625 625 625 625 41 34 625 24 625 7 625 625 625 625 625 625 9 625 6 625 625 625 625 625 625 31 32 15 625 625 625 13 625 625 625 625 625 625 625 625 625 625 625 625 625 625 625
625 625 625 625 30 625 0 625 625 625 625 625 625 625 625 625 625 625 21 30 625 625 625 31 625 625 625 625 625 625 625 625 625 625 625 625 625 625 42 625 625 625 625 625 31 22 625 625 625 625 25 625 625 625 625 625 625 625 625 20 625 24 30 625 625 20 13 625 625 625 625 625 625 625 11 27 625 625 625 31 625 625 10 18 625 625 4 625 26
625 35 625 9 1 625 625 0 625 625 625 625 625 625 625 31 31 625 20 625 22 625 625 625 625 625 20 625 15 625 625 625 625 625 20 625 625 17 14 625 625 625 625 625 625 625 625 625 33 625 625 625 32 35 11 625 16 625 625 11 625 625 625 41 625 625 22 625 625 625 625 625 625 625 24 625 26 625 625 625 19 36 23 48 625 625 625 19 625
20 625 16 625 625 33 625 625 0 17 11 625 15 625 625 625 625 625 625 625 625 28 20 625 46 38 625 625 625 29 8 625 625 625 625 625 625 625 625 21 625 625 625 625 625 625 625 625 625 15 625 625 625 625 625 625 625 46 35 625 625 625 625 24 625 625 625 32 625 33 625 625 625 29 625 625 625 23 18 625 625 625 625 625 6 41 625 625 625
625 625 29 625 625 24 625 625 17 0 25 625 8 625 625 625 625 625 625 625 625 12 32 625 46 625 625 625 625 13 19 625 625 625 625 625 625 625 625 19 625 625 625 625 625 625 625 625 625 22 625 625 625 625 625 625 625 625 625 625 625 625 625 625 625 625 625 16 625 18 625 625 625 15 625 625 625 625 34 625 625 625 625 625 21 625 625 625 625
21 33 5 625 625 625 625 625 11 25 0 625 26 625 625 28 625 40 625 625 625 37 26 625 625 30 625 625 625 37 6 625 625 625 625 625 625 625 625 32 625 625 625 625 625 625 625 625 625 24 625 625 27 625 625 625 625 53 625 625 625 625 625 26 625 625 625 39 625 625 625 625 625 625 625 625 625 22 14 625 625 625 625 625 13 625 625 625 625
625 625 625 625 625 625 625 625 625 625 625 0 625 625 625 625 625 625 625 625 625 625 625 32 625 625 625 31 625 625 625 17 8 15 625 625 21 625 625 625 30 14 19 625 27 625 625 625 625 625 625 625 625 625 625 31 625 625 625 625 625 21 16 625 35 24 625 625 625 625 4 18 28 625 625 625 625 625 625 15 625 625 625 625 625 625 625 625 21
31 625 30 625 625 19 625 625 15 8 26 625 0 625 35 625 625 625 625 625 625 14 26 625 38 625 625 625 625 18 21 625 625 625 625 625 625 625 625 11 50 625 625 625 625 625 625 625 625 15 625 24 625 625 625 625 625 43 23 625 19 625 625 625 625 625 625 23 625 18 625 625 625 14 625 625 625 625 32 625 625 625 625 625 18 625 625 625 625
625 625 625 20 625 625 625 625 625 625 625 625 625 0 625 625 625 625 11 625 12 625 32 11 625 625 9 20 625 625 625 625 625 625 625 625 21 13 625 625 625 625 27 625 625 625 625 625 625 625 625 625 625 15 625 625 24 29 625 24 625 24 625 28 625 28 625 625 625 625 625 625 30 625 625 625 6 625 625 28 625 625 21 625 625 13 625 10 625
625 625 625 625 625 17 625 625 625 625 625 625 35 625 0 625 625 625 625 625 625 33 625 625 20 625 625 625 625 41 625 49 625 625 625 33 625 625 625 27 36 625 625 625 625 625 26 19 625 37 625 11 625 625 625 625 625 36 14 625 17 625 625 625 49 625 625 625 22 29 625 625 625 29 625 625 625 625 625 625 625 625 625 625 625 625 625 625 625
16 15 29 625 625 625 625 31 625 625 28 625 625 625 625 0 20 24 625 625 20 625 625 625 625 16 625 625 29 625 34 625 625 625 15 625 625 22 35 625 625 625 625 20 625 625 625 625 33 625 625 625 2 24 24 625 15 625 625 625 625 625 625 18 625 625 625 625 625 625 625 625 625 625 625 625 26 11 15 625 23 625 625 625 28 625 625 625 625
625 8 40 625 625 625 625 31 625 625 625 625 625 625 625 20 0 6 625 625 625 625 625 625 625 12 625 625 20 625 625 625 625 625 13 625 625 625 26 625 625 625 625 2 625 625 625 625 14 625 625 625 22 625 20 625 22 625 625 625 625 625 625 625 625 625 625 625 625 625 625 625 625 625 625 625 625 625 32 625 13 17 625 625 625 625 625 625 625
625 9 38 625 625 625 625 625 625 625 40 625 625 625 625 24 6 0 625 625 625 625 625 625 625 10 625 625 26 625 46 625 625 625 19 625 625 625 32 625 625 625 625 5 625 625 625 625 15 625 625 625 26 625 26 625 28 625 625 625 625 625 625 625 625 625 625 625 625 625 625 625 625 625 625 625 625 625 33 625 19 18 625 625 46 625 625 625 625
625 625 625 11 19 625 21 20 625 625 625 625 625 11 625 625 625 625 0 625 15 625 625 18 625 625 3 30 625 625 625 625 625 625 625 625 26 13 33 625 625 625 34 625 625 34 625 625 625 625 625 625 625 24 625 625 23 39 625 14 625 25 37 625 625 27 22 625 625 625 625 625 625 625 23 625 13 625 625 31 625 625 11 625 625 24 19 2 36
625 625 625 625 625 625 30 625 625 625 625 625 625 625 625 625 625 625 625 0 625 625 625 625 625 625 625 625 625 625 625 625 625 625 625 625 625 625 625 625 625 625 625 625 3 11 625 625 625 625 11 625 625 625 625 625 625 625 625 625 625 625 625 625 625 20 625 625 625 625 625 13 625 625 39 6 625 625 625 625 625 625 625 20 625 625 625 625 12
24 32 625 18 22 625 625 22 625 625 625 625 625 12 625 20 625 625 15 625 0 625 28 23 625 35 12 625 625 625 625 625 625 625 22 625 625 4 33 625 625 625 625 625 625 625 625 625 625 625 625 625 20 13 23 625 12 36 625 625 625 625 625 21 625 625 625 625 625 625 625 625 625 625 625 625 7 23 31 625 625 625 625 625 39 17 625 13 625
625 625 41 625 625 18 625 625 28 12 37 625 14 625 33 625 625 625 625 625 625 0 625 625 43 625 625 625 625 8 32 625 625 625 625 625 625 625 625 20 625 625 625 625 625 625 625 52 625 28 625 25 625 625 625 625 625 625 625 625 22 625 625 625 625 625 625 13 625 6 625 625 625 5 625 625 625 625 625 625 625 625 625 625 32 625 625 625 625
10 625 30 625 625 625 625 625 20 32 26 625 26 32 625 625 625 625 625 625 28 625 0 35 34 625 38 30 625 625 27 625 625 625 625 41 44 32 625 22 36 625 42 625 625 625 625 625 625 11 625 625 23 17 625 625 34 28 31 625 625 625 625 7 625 625 625 625 625 625 625 625 36 625 625 625 28 14 18 625 625 625 625 625 14 21 625 625 625
625 625 625 29 625 625 31 625 625 625 625 32 625 11 625 625 625 625 18 625 23 625 35 0 625 625 18 13 625 625 625 34 625 625 625 625 11 24 625 625 25 30 16 625 625 625 625 625 625 43 625 625 625 19 625 625 625 22 625 32 625 17 29 625 625 23 38 625 625 625 625 625 20 625 625 625 16 625 625 19 625 625 25 625 625 14 625 19 625
43 625 625 625 625 26 625 625 46 46 625 625 38 625 20 625 625 625 625 625 625 43 34 625 0 625 625 26 625 625 625 32 625 625 625 15 625 625 625 27 16 625 31 625 625 625 23 21 625 31 625 20 625 37 625 41 625 16 17 625 21 625 625 625 40 625 625 625 8 41 625 625 21 39 625 625 625 625 625 625 625 625 625 625 43 33 625 625 625
28 4 28 625 625 625 625 625 38 625 30 625 625 625 625 16 12 10 625 625 35 625 625 625 625 0 625 625 625 625 36 625 625 625 19 625 625 625 625 625 625 625 625 10 625 625 625 625 25 625 625 625 18 625 28 625 26 625 625 625 625 625 625 32 625 625 625 69 625 625 625 625 625 625 625 625 625 24 22 625 23 625 625 625 36 625 625 625 625
625 625 625 11 19 625 625 20 625 625 625 625 625 9 625 625 625 625 3 625 12 625 38 18 625 625 0 29 625 625 625 625 625 625 625 625 26 10 625 625 625 625 625 625 625 625 625 625 625 625 625 625 32 21 625 625 20 625 625 15 625 27 625 33 625 625 625 625 625 625 625 625 625 625 625 625 10 625 625 625 625 625 14 625 625 21 625 1 625
625 625 625 625 625 625 625 625 625 625 625 31 625 20 625 625 625 625 30 625 625 625 30 13 26 625 29 0 625 625 625 27 31 625 625 21 16 625 625 625 14 35 12 625 625 625 625 625 625 36 625 625 625 20 625 625 625 10 625 625 625 25 35 31 625 625 625 625 625 625 31 625 9 625 625 625 23 625 625 23 625 625 37 625 44 14 625 625 625
625 26 625 24 16 625 625 15 625 625 625 625 625 625 625 29 20 26 625 625 625 625 625 625 625 625 625 625 0 625 625 625 625 625 15 625 625 27 7 625 625 625 625 22 625 625 625 625 18 625 625 625 625 625 7 625 19 625 625 625 625 625 625 625 625 625 36 625 625 625 625 625 625 625 625 625 625 625 625 625 7 20 625 625 625 625 625 625 625
625 625 40 625 625 26 625 625 29 13 37 625 18 625 41 625 625 625 625 625 625 8 625 625 625 625 625 625 625 0 31 625 625 625 625 625 625 625 625 27 625 625 625 625 625 625 625 625 625 34 625 625 625 625 625 625 625 625 625 625 625 625 625 625 625 625 625 5 625 12 625 625 625 12 625 625 625 625 625 625 625 625 625 625 625 625 625 625 625
25 625 9 625 625 625 625 625 8 19 6 625 21 625 625 34 625 46 625 625 625 32 27 625 625 36 625 625 625 31 0 625 625 625 625 625 625 625 625 29 625 625 625 625 625 625 625 625 625 23 625 625 625 625 625 625 625 625 625 625 625 625 625 625 625 625 625 33 625 38 625 625 625 34 625 625 625 625 19 625 625 625 625 625 12 625 625 625 625
625 625 625 625 625 625 625 625 625 625 625 17 625 625 49 625 625 625 625 625 625 625 625 34 32 625 625 27 625 625 625 0 10 32 625 17 26 625 625 625 19 30 17 625 44 625 31 37 625 58 625 625 625 625 625 20 625 27 625 625 625 625 625 625 23 625 625 625 27 625 12 34 19 625 625 625 625 625 625 24 625 625 625 625 625 41 625 625 625
625 625 625 625 625 625 625 625 625 625 625 8 625 625 625 625 625 625 625 625 625 625 625 625 625 625 625 31 625 625 625 10 0 23 625 26 25 625 625 625 26 22 19 625 35 625 40 625 625 625 625 625 625 625 625 24 625 625 625 625 625 625 23 625 28 625 625 625 625 625 3 26 25 625 625 625 625 625 625 20 625 625 625 625 625 625 625 625 29
625 625 625 625 625 625 625 625 625 625 625 15 625 625 625 625 625 625 625 625 625 625 625 625 625 625 625 625 625 625 625 32 23 0 625 46 27 625 625 625 625 7 30 625 12 15 625 625 625 625 11 625 625 625 625 45 625 625 625 625 625 21 9 625 49 19 625 625 625 625 20 8 625 625 625 625 625 625 625 19 625 625 625 625 625 625 625 625 11
625 15 42 25 21 625 625 20 625 625 625 625 625 625 625 15 13 19 625 625 22 625 625 625 625 19 625 625 15 625 625 625 625 625 0 625 625 20 21 625 625 625 625 14 625 625 625 625 22 625 625 625 17 625 10 625 10 625 625 625 625 625 625 31 625 625 625 625 625 625 625 625 625 625 625 625 625 26 30 625 9 25 625 625 625 625 625 625 625
625 625 625 625 625 625 625 625 625 625 625 625 625 625 33 625 625 625 625 625 625 625 41 625 15 625 625 21 625 625 625 17 26 46 625 0 625 625 625 41 7 625 20 625 625 625 22 25 625 42 625 34 625 625 625 30 625 14 32 625 625 625 625 625 29 625 625 625 12 56 28 625 12 625 625 625 625 625 625 625 625 625 625 625 625 625 625 625 625
625 625 625 625 625 625 625 625 625 625 625 21 625 21 625 625 625 625 26 625 625 625 44 11 625 625 26 16 625 625 625 26 25 27 625 625 0 625 625 625 24 20 10 625 625 625 625 625 625 625 625 625 625 625 625 625 625 25 625 38 625 9 19 625 625 16 625 625 625 625 23 22 19 625 625 625 26 625 625 8 625 625 28 625 625 24 625 625 22
625 625 625 13 17 625 625 17 625 625 625 625 625 13 625 22 625 625 13 625 4 625 32 24 625 625 10 625 27 625 625 625 625 625 20 625 625 0 29 625 625 625 625 625 625 625 625 625 625 625 625 625 22 17 20 625 11 625 625 19 625 625 625 26 625 625 31 625 625 625 625 625 625 625 625 625 9 26 34 625 26 625 24 625 625 21 625 11 625
625 625 625 23 14 625 42 14 625 625 625 625 625 625 625 35 26 32 33 625 33 625 625 625 625 625 625 625 7 625 625 625 625 625 21 625 625 29 0 625 625 625 625 625 625 63 625 625 23 625 625 625 625 625 11 625 23 625 625 23 625 625 625 625 625 625 31 625 625 625 625 625 625 625 34 625 625 625 625 625 14 25 36 57 625 625 38 32 625
625 625 625 625 625 13 625 625 21 19 32 625 11 625 27 625 625 625 625 625 625 20 22 625 27 625 625 625 625 27 29 625 625 625 625 41 625 625 625 0 39 625 625 625 625 625 625 43 625 11 625 16 625 625 625 625 625 33 14 625 10 625 625 625 625 625 625 625 35 22 625 625 41 17 625 625 625 625 625 625 625 625 625 625 21 37 625 625 625
625 625 625 625 625 625 625 625 625 625 625 30 50 625 36 625 625 625 625 625 625 625 36 25 16 625 625 14 625 625 625 19 26 625 625 7 24 625 625 39 0 625 15 625 625 625 29 32 625 39 625 625 625 625 625 35 625 8 33 625 625 625 625 625 35 625 625 625 17 625 27 625 5 625 625 625 625 625 625 625 625 625 625 625 49 26 625 625 625
625 625 625 625 625 625 625 625 625 625 625 14 625 625 625 625 625 625 625 625 625 625 625 30 625 625 625 35 625 625 625 30 22 7 625 625 20 625 625 625 625 0 25 625 14 625 625 625 625 625 7 625 625 625 625 46 625 625 625 625 625 14 2 625 625 12 625 625 625 625 19 4 625 625 625 625 625 625 625 12 625 625 35 625 625 625 625 625 7
625 625 625 625 625 625 625 625 625 625 625 19 625 27 625 625 625 625 34 625 625 625 42 16 31 625 625 12 625 625 625 17 19 30 625 20 10 625 625 625 15 25 0 625 625 625 625 625 625 625 625 625 625 625 625 38 625 18 625 625 625 18 25 625 40 25 625 625 625 625 19 28 10 625 625 625 625 625 625 13 625 625 625 625 625 25 625 625 625
625 7 38 625 625 625 625 625 625 625 625 625 625 625 625 20 2 5 625 625 625 625 625 625 625 10 625 625 22 625 625 625 625 625 14 625 625 625 625 625 625 625 625 0 625 625 625 625 15 625 625 625 625 625 22 625 24 625 625 625 625 625 625 625 625 625 625 625 625 625 625 625 625 625 625 625 625 625 31 625 15 18 625 625 625 625 625 625 625
625 625 625 625 625 625 31 625 625 625 625 27 625 625 625 625 625 625 625 3 625 625 625 625 625 625 625 625 625 625 625 44 35 12 625 625 625 625 625 625 625 14 625 625 0 11 625 625 625 625 11 625 625 625 625 57 625 625 625 625 625 25 14 625 61 19 625 625 625 625 32 11 625 625 625 9 625 625 625 26 625 625 38 22 625 625 625 625 11
625 625 625 625 625 625 22 625 625 625 625 625 625 625 625 625 625 625 34 11 625 625 625 625 625 625 625 625 625 625 625 625 625 15 625 625 625 625 63 625 625 625 625 625 11 0 625 625 625 625 4 625 625 625 625 625 625 625 625 625 625 16 10 625 625 9 34 625 625 625 625 9 625 625 32 13 625 625 625 625 625 625 27 19 625 625 25 625 5
625 625 625 625 625 41 625 625 625 625 625 625 625 625 26 625 625 625 625 625 625 625 625 625 23 625 625 625 625 625 625 31 40 625 625 22 625 625 625 625 29 625 625 625 625 625 0 8 625 625 625 625 625 625 625 27 625 35 34 625 625 625 625 625 24 625 625 625 15 54 625 625 34 625 625 625 625 625 625 625 625 625 625 625 625 625 625 625 625
625 625 625 625 625 34 625 625 625 625 625 625 625 625 19 625 625 625 625 625 625 52 625 625 21 625 625 625 625 625 625 37 625 625 625 25 625 625 625 43 32 625 625 625 625 625 8 0 625 625 625 28 625 625 625 34 625 625 29 625 33 625 625 625 31 625 625 625 15 47 625 625 625 47 625 625 625 625 625 625 625 625 625 625 625 625 625 625 625
625 22 625 625 625 625 625 33 625 625 625 625 625 625 625 33 14 15 625 625 625 625 625 625 625 25 625 625 18 625 625 625 625 625 22 625 625 625 23 625 625 625 625 15 625 625 625 625 0 625 625 625 625 625 23 625 31 625 625 625 625 625 625 625 625 625 625 625 625 625 625 625 625 625 625 625 625 625 625 625 16 4 625 625 625 625 625 625 625
18 625 29 625 625 24 625 625 15 22 24 625 15 625 37 625 625 625 625 625 625 28 11 43 31 625 625 36 625 34 23 58 625 625 625 42 625 625 625 11 39 625 625 625 625 625 625 625 625 0 625 26 625 27 625 625 625 31 23 625 21 625 625 18 625 625 625 38 40 32 625 625 40 27 625 625 38 23 23 625 625 625 625 625 12 30 625 625 625
625 625 625 625 625 625 25 625 625 625 625 625 625 625 625 625 625 625 625 11 625 625 625 625 625 625 625 625 625 625 625 625 625 11 625 625 625 625 625 625 625 7 625 625 11 4 625 625 625 625 0 625 625 625 625 53 625 625 625 625 625 14 6 625 625 9 625 625 625 625 625 4 625 625 36 16 625 625 625 16 625 625 30 23 625 625 29 625 1
625 625 625 625 625 7 625 625 625 625 625 625 24 625 11 625 625 625 625 625 625 25 625 625 20 625 625 625 625 625 625 625 625 625 625 34 625 625 625 16 625 625 625 625 625 625 625 28 625 26 625 0 625 625 625 625 625 625 4 625 6 625 625 625 625 625 625 625 25 22 625 625 625 20 625 625 625 625 625 625 625 625 625 625 625 625 625 625 625
14 17 29 33 625 625 625 32 625 625 27 625 625 625 625 2 22 26 625 625 20 625 23 625 625 18 32 625 625 625 625 625 625 625 17 625 625 22 625 625 625 625 625 625 625 625 625 625 625 625 625 625 0 22 25 625 16 625 625 625 625 625 625 16 625 625 625 625 625 625 625 625 625 625 625 625 25 9 14 625 25 625 625 625 26 29 625 625 625
18 625 625 625 625 625 625 35 625 625 625 625 625 15 625 24 625 625 24 625 13 625 17 19 37 625 21 20 625 625 625 625 625 625 625 625 625 17 625 625 625 625 625 625 625 625 625 625 625 27 625 625 22 0 625 625 24 24 625 625 625 625 625 13 625 625 625 625 625 625 625 625 29 625 625 625 11 20 27 625 625 625 625 625 31 7 625 22 625
625 24 625 19 12 625 625 11 625 625 625 625 625 625 625 24 20 26 625 625 23 625 625 625 625 28 625 625 7 625 625 625 625 625 10 625 625 20 11 625 625 625 625 22 625 625 625 625 23 625 625 625 25 625 0 625 12 625 625 22 625 625 625 625 625 625 34 625 625 625 625 625 625 625 625 625 29 625 39 625 8 26 625 59 625 625 625 26 625
625 625 625 625 625 625 625 625 625 625 625 31 625 625 625 625 625 625 625 625 625 625 625 625 41 625 625 625 625 625 625 20 24 45 625 30 625 625 625 625 35 46 38 625 57 625 27 34 625 625 53 625 625 625 625 0 625 625 625 625 625 625 47 625 4 625 625 625 34 625 27 49 37 625 625 625 625 625 625 44 625 625 625 625 625 625 625 625 53
27 22 44 18 17 625 625 16 625 625 625 625 625 24 625 15 22 28 23 625 12 625 34 625 625 26 20 625 19 625 625 625 625 625 10 625 625 11 23 625 625 625 625 24 625 625 625 625 31 625 625 625 16 24 12 625 0 625 625 24 625 625 625 26 625 625 36 625 625 625 625 625 625 625 625 625 19 23 29 625 16 35 625 625 625 29 625 21 625
36 625 625 625 625 625 625 625 46 625 53 625 43 29 36 625 625 625 39 625 36 625 28 22 16 625 625 10 625 625 625 27 625 625 625 14 25 625 625 33 8 625 18 625 625 625 35 625 625 31 625 625 625 24 625 625 625 0 29 625 32 34 625 31 44 625 625 625 20 625 34 625 9 49 625 625 31 625 45 31 625 625 625 625 41 19 625 625 625
625 625 625 625 625 9 625 625 35 625 625 625 23 625 14 625 625 625 625 625 625 625 31 625 17 625 625 625 625 625 625 625 625 625 625 32 625 625 625 14 33 625 625 625 625 625 34 29 625 23 625 4 625 625 625 625 625 29 0 625 5 625 625 625 625 625 625 625 23 24 625 625 625 22 625 625 625 625 625 625 625 625 625 625 625 625 625 625 625
625 625 625 6 10 625 20 11 625 625 625 625 625 24 625 625 625 625 14 625 625 625 625 32 625 625 15 625 625 625 625 625 625 625 625 625 38 19 23 625 625 625 625 625 625 625 625 625 625 625 625 625 625 625 22 625 24 625 625 0 625 35 45 625 625 35 13 625 625 625 625 625 625 625 14 625 625 625 625 625 625 625 13 37 625 625 16 14 625
625 625 625 625 625 6 625 625 625 625 625 625 19 625 17 625 625 625 625 625 625 22 625 625 21 625 625 625 625 625 625 625 625 625 625 625 625 625 625 10 625 625 625 625 625 625 625 33 625 21 625 6 625 625 625 625 625 32 5 625 0 625 625 625 625 625 625 625 28 21 625 625 625 18 625 625 625 625 625 625 625 625 625 625 625 625 625 625 625
625 625 625 35 44 625 24 625 625 625 625 21 625 24 625 625 625 625 25 625 625 625 625 17 625 625 27 25 625 625 625 625 625 21 625 625 9 625 625 625 625 14 18 625 25 16 625 625 625 625 14 625 625 625 625 625 625 34 625 35 625 0 13 625 625 7 35 625 625 625 24 15 28 625 34 625 30 625 625 7 625 625 24 32 625 31 26 27 14
625 625 625 625 625 625 30 625 625 625 625 16 625 625 625 625 625 625 37 625 625 625 625 29 625 625 625 35 625 625 625 625 23 9 625 625 19 625 625 625 625 2 25 625 14 10 625 625 625 625 6 625 625 625 625 47 625 625 625 45 625 13 0 625 625 11 625 625 625 625 20 3 625 625 625 625 625 625 625 12 625 625 33 625 625 625 33 625 5
5 625 625 625 625 625 625 41 24 625 26 625 625 28 625 18 625 625 625 625 21 625 7 625 625 32 33 31 625 625 625 625 625 625 31 625 625 26 625 625 625 625 625 625 625 625 625 625 625 18 625 625 16 13 625 625 26 31 625 625 625 625 625 0 625 625 625 625 625 625 625 625 625 625 625 625 23 9 15 625 625 625 625 625 18 19 625 625 625
625 625 625 625 625 625 625 625 625 625 625 35 625 625 49 625 625 625 625 625 625 625 625 625 40 625 625 625 625 625 625 23 28 49 625 29 625 625 625 625 35 625 40 625 61 625 24 31 625 625 625 625 625 625 625 4 625 44 625 625 625 625 625 625 0 625 625 625 32 77 31 625 38 625 625 625 625 625 625 625 625 625 625 625 625 625 625 625 625
625 625 625 36 625 625 20 625 625 625 625 24 625 28 625 625 625 625 27 20 625 625 625 23 625 625 625 625 625 625 625 625 625 19 625 625 16 625 625 625 625 12 25 625 19 9 625 625 625 625 9 625 625 625 625 625 625 625 625 35 625 7 11 625 625 0 32 625 625 625 625 11 625 625 30 22 625 625 625 12 625 625 22 25 625 625 23 625 9
625 625 625 18 21 625 13 22 625 625 625 625 625 625 625 625 625 625 22 625 625 625 625 38 625 625 625 625 36 625 625 625 625 625 625 625 625 31 31 625 625 625 625 625 625 34 625 625 625 625 625 625 625 625 34 625 36 625 625 13 625 35 625 625 625 32 0 625 625 625 625 625 625 625 2 38 625 625 625 625 625 625 13 26 625 625 9 23 625
625 625 41 625 625 31 625 625 32 16 39 625 23 625 625 625 625 625 625 625 625 13 625 625 625 69 625 625 625 5 33 625 625 625 625 625 625 625 625 625 625 625 625 625 625 625 625 625 625 38 625 625 625 625 625 625 625 625 625 625 625 625 625 625 625 625 625 0 625 17 625 625 625 17 625 625 625 625 50 625 625 625 625 625 38 625 625 625 625
625 625 625 625 625 32 625 625 625 625 625 625 625 625 22 625 625 625 625 625 625 625 625 625 8 625 625 625 625 625 625 27 625 625 625 12 625 625 625 35 17 625 625 625 625 625 15 15 625 40 625 25 625 625 625 34 625 20 23 625 28 625 625 625 32 625 625 625 0 47 625 625 22 45 625 625 625 625 625 625 625 625 625 625 625 625 625 625 625
625 625 47 625 625 15 625 625 33 18 625 625 18 625 29 625 625 625 625 625 625 6 625 625 41 625 625 625 625 12 38 625 625 625 625 56 625 625 625 22 625 625 625 625 625 625 54 47 625 32 625 22 625 625 625 625 625 625 24 625 21 625 625 625 77 625 625 17 47 0 625 625 625 5 625 625 625 625 625 625 625 625 625 625 625 625 625 625 625
625 625 625 625 625 625 625 625 625 625 625 4 625 625 625 625 625 625 625 625 625 625 625 625 625 625 625 31 625 625 625 12 3 20 625 28 23 625 625 625 27 19 19 625 32 625 625 625 625 625 625 625 625 625 625 27 625 34 625 625 625 24 20 625 31 625 625 625 625 625 0 22 26 625 625 625 625 625 625 17 625 625 625 625 625 625 625 625 625
625 625 625 625 625 625 625 625 625 625 625 18 625 625 625 625 625 625 625 13 625 625 625 625 625 625 625 625 625 625 625 34 26 8 625 625 22 625 625 625 625 4 28 625 11 9 625 625 625 625 4 625 625 625 625 49 625 625 625 625 625 15 3 625 625 11 625 625 625 625 22 0 625 625 625 625 625 625 625 15 625 625 33 625 625 625 625 625 3
625 625 625 625 625 625 625 625 625 625 625 28 625 30 625 625 625 625 625 625 625 625 36 20 21 625 625 9 625 625 625 19 25 625 625 12 19 625 625 41 5 625 10 625 625 625 34 625 625 40 625 625 625 29 625 37 625 9 625 625 625 28 625 625 38 625 625 625 22 625 26 625 0 625 625 625 625 625 625 24 625 625 625 625 625 23 625 625 625
625 625 625 625 625 13 625 625 29 15 625 625 14 625 29 625 625 625 625 625 625 5 625 625 39 625 625 625 625 12 34 625 625 625 625 625 625 625 625 17 625 625 625 625 625 625 625 47 625 27 625 20 625 625 625 625 625 49 22 625 18 625 625 625 625 625 625 17 45 5 625 625 625 0 625 625 625 625 625 625 625 625 625 625 32 625 625 625 625
625 625 625 625 23 625 11 24 625 625 625 625 625 625 625 625 625 625 23 39 625 625 625 625 625 625 625 625 625 625 625 625 625 625 625 625 625 625 34 625 625 625 625 625 625 32 625 625 625 625 36 625 625 625 625 625 625 625 625 14 625 34 625 625 625 30 2 625 625 625 625 625 625 625 0 36 625 625 625 625 625 625 13 24 625 625 8 625 625
625 625 625 625 625 625 27 625 625 625 625 625 625 625 625 625 625 625 625 6 625 625 625 625 625 625 625 625 625 625 625 625 625 625 625 625 625 625 625 625 625 625 625 625 9 13 625 625 625 625 16 625 625 625 625 625 625 625 625 625 625 625 625 625 625 22 38 625 625 625 625 625 625 625 36 0 625 625 625 625 625 625 36 14 625 625 31 625 16
27 625 625 20 625 625 625 26 625 625 625 625 625 6 625 26 625 625 13 625 7 625 28 16 625 625 10 23 625 625 625 625 625 625 625 625 26 9 625 625 625 625 625 625 625 625 625 625 625 38 625 625 25 11 29 625 19 31 625 625 625 30 625 23 625 625 625 625 625 625 625 625 625 625 625 625 0 26 625 625 625 625 625 625 625 12 625 12 625
5 24 24 625 625 625 625 625 23 625 22 625 625 625 625 11 625 625 625 625 23 625 14 625 625 24 625 625 625 625 625 625 625 625 26 625 625 26 625 625 625 625 625 625 625 625 625 625 625 23 625 625 9 20 625 625 23 625 625 625 625 625 625 9 625 625 625 625 625 625 625 625 625 625 625 625 26 0 8 625 625 625 625 625 18 26 625 625 625
9 24 16 625 625 625 625 625 18 34 14 625 32 625 625 15 32 33 625 625 31 625 18 625 625 22 625 625 625 625 19 625 625 625 30 625 625 34 625 625 625 625 625 31 625 625 625 625 625 23 625 625 14 27 39 625 29 45 625 625 625 625 625 15 625 625 625 50 625 625 625 625 625 625 625 625 625 8 0 625 625 625 625 625 14 625 625 625 625
625 625 625 625 625 625 31 625 625 625 625 15 625 28 625 625 625 625 31 625 625 625 625 19 625 625 625 23 625 625 625 24 20 19 625 625 8 625 625 625 625 12 13 625 26 625 625 625 625 625 16 625 625 625 625 44 625 31 625 625 625 7 12 625 625 12 625 625 625 625 17 15 24 625 625 625 625 625 625 0 625 625 31 625 625 32 625 625 16
625 19 625 625 20 625 625 19 625 625 625 625 625 625 625 23 13 19 625 625 625 625 625 625 625 23 625 625 7 625 625 625 625 625 9 625 625 26 14 625 625 625 625 15 625 625 625 625 16 625 625 625 25 625 8 625 16 625 625 625 625 625 625 625 625 625 625 625 625 625 625 625 625 625 625 625 625 625 625 625 0 19 625 625 625 625 625 625 625
625 25 625 625 37 625 625 36 625 625 625 625 625 625 625 625 17 18 625 625 625 625 625 625 625 625 625 625 20 625 625 625 625 625 25 625 625 625 25 625 625 625 625 18 625 625 625 625 4 625 625 625 625 625 26 625 35 625 625 625 625 625 625 625 625 625 625 625 625 625 625 625 625 625 625 625 625 625 625 625 19 0 625 625 625 625 625 625 625
625 625 625 15 22 625 10 23 625 625 625 625 625 21 625 625 625 625 11 625 625 625 625 25 625 625 14 37 625 625 625 625 625 625 625 625 28 24 36 625 625 35 625 625 38 27 625 625 625 625 30 625 625 625 625 625 625 625 625 13 625 24 33 625 625 22 13 625 625 625 625 33 625 625 13 36 625 625 625 31 625 625 0 28 625 34 8 13 30
625 625 625 41 47 625 18 48 625 625 625 625 625 625 625 625 625 625 625 20 625 625 625 625 625 625 625 625 625 625 625 625 625 625 625 625 625 625 57 625 625 625 625 625 22 19 625 625 625 625 23 625 625 625 59 625 625 625 625 37 625 32 625 625 625 25 26 625 625 625 625 625 625 625 24 14 625 625 625 625 625 625 28 0 625 625 21 625 24
15 625 18 625 625 625 625 625 6 21 13 625 18 625 625 28 625 46 625 625 39 32 14 625 43 36 625 44 625 625 12 625 625 625 625 625 625 625 625 21 49 625 625 625 625 625 625 625 625 12 625 625 26 31 625 625 625 41 625 625 625 625 625 18 625 625 625 38 625 625 625 625 625 32 625 625 625 18 14 625 625 625 625 625 0 35 625 625 625
24 625 625 625 625 625 625 625 41 625 625 625 625 13 625 625 625 625 24 625 17 625 21 14 33 625 21 14 625 625 625 41 625 625 625 625 24 21 625 37 26 625 25 625 625 625 625 625 625 30 625 625 29 7 625 625 29 19 625 625 625 31 625 19 625 625 625 625 625 625 625 625 23 625 625 625 12 26 625 32 625 625 34 625 35 0 625 23 625
625 625 625 20 26 625 4 625 625 625 625 625 625 625 625 625 625 625 19 625 625 625 625 625 625 625 625 625 625 625 625 625 625 625 625 625 625 625 38 625 625 625 625 625 625 25 625 625 625 625 29 625 625 625 625 625 625 625 625 16 625 26 33 625 625 23 9 625 625 625 625 625 625 625 8 31 625 625 625 625 625 625 8 21 625 625 0 625 625
625 625 625 10 18 625 625 19 625 625 625 625 625 10 625 625 625 625 2 625 13 625 625 19 625 625 1 625 625 625 625 625 625 625 625 625 625 11 32 625 625 625 625 625 625 625 625 625 625 625 625 625 625 22 26 625 21 625 625 14 625 27 625 625 625 625 23 625 625 625 625 625 625 625 625 625 12 625 625 625 625 625 13 625 625 23 625 0 625
625 625 625 625 625 625 26 625 625 625 625 21 625 625 625 625 625 625 36 12 625 625 625 625 625 625 625 625 625 625 625 625 29 11 625 625 22 625 625 625 625 7 625 625 11 5 625 625 625 625 1 625 625 625 625 53 625 625 625 625 625 14 5 625 625 9 625 625 625 625 625 3 625 625 625 16 625 625 625 16 625 625 30 24 625 625 625 625 0
EOF
